504,434
469,194
597,939
1093,705
885,806
667,494
444,369
570,748
841,487
533,258
621,406
778,476
1166,563
531,406
559,166
296,345
655,393
769,420
1080,277
664,430
1125,336
681,526
417,770
880,470
737,761
814,474
732,81
681,286
436,887
787,460
361,569
548,338
975,257
668,380
721,326
596,379
761,446
912,-48
